
List of user-set options:

                                    Name   Value                used
                           compl_inf_tol = 1                     yes
                         constr_viol_tol = 1                     yes
                            dual_inf_tol = 1000                  yes
                           linear_solver = ma97                  yes
                              ma86_small = 1e-30                  no
                                  ma86_u = 0.0001                 no
                              ma97_order = best                  yes
                              ma97_small = 1e-30                 yes
                            ma97_switch1 = at_start              yes
                            ma97_switch2 = od_hd_reuse           yes
                                  ma97_u = 1e-06                 yes
                               ma97_umax = 0.5                   yes
                                max_iter = 1000                  yes
                    max_refinement_steps = 20                    yes
                    min_refinement_steps = 5                     yes
                                 mu_init = 1e-06                 yes
           mu_superlinear_decrease_power = 1.25                  yes
                   nlp_scaling_min_value = 1e-08                 yes
                        option_file_name = Preset_Case_835_pf.opt  yes
                             output_file = ./tmp/Preset_Case_835_pf.output  yes
                      print_user_options = yes                   yes
        required_infeasibility_reduction = 1                      no
                                     tol = 1e-08                 yes
                   warm_start_bound_frac = 1e-20                 yes
                   warm_start_bound_push = 1e-20                 yes
                   warm_start_init_point = yes                   yes
              warm_start_mult_bound_push = 1e-20                 yes
                warm_start_mult_init_max = 1e+40                 yes
             warm_start_slack_bound_frac = 1e-20                 yes
             warm_start_slack_bound_push = 1e-20                 yes

******************************************************************************
This program contains Ipopt, a library for large-scale nonlinear optimization.
 Ipopt is released as open source code under the Eclipse Public License (EPL).
         For more information visit http://projects.coin-or.org/Ipopt
******************************************************************************

This is Ipopt version 3.12.10, running with linear solver ma97.

Number of nonzeros in equality constraint Jacobian...:   123442
Number of nonzeros in inequality constraint Jacobian.:      213
Number of nonzeros in Lagrangian Hessian.............:    49069

Total number of variables............................:    31591
                     variables with only lower bounds:    12912
                variables with lower and upper bounds:    15130
                     variables with only upper bounds:        0
Total number of equality constraints.................:    31483
Total number of inequality constraints...............:       25
        inequality constraints with only lower bounds:        4
   inequality constraints with lower and upper bounds:        0
        inequality constraints with only upper bounds:       21

iter    objective    inf_pr   inf_du lg(mu)  ||d||  lg(rg) alpha_du alpha_pr  ls
   0 -5.2991165e+00 4.06e-03 1.02e+00  -6.0 0.00e+00    -  0.00e+00 0.00e+00   0
   1 -5.2983814e+00 7.67e-01 9.27e+00  -6.0 4.57e+05    -  6.93e-05 2.48e-04h  3
   2 -5.3019243e+00 7.67e-01 3.74e+01  -6.0 7.96e+03    -  1.63e-01 6.43e-04h  1
   3 -5.4607184e+00 5.63e+00 1.57e+03  -6.0 3.18e+03    -  7.90e-02 1.79e-01h  1
   4 -5.4615200e+00 5.36e+00 9.51e+03  -6.0 1.65e+01  -4.0 4.95e-01 4.84e-02h  1
   5 -5.5766491e+00 1.48e+01 6.99e+03  -6.0 3.24e+03    -  2.29e-01 2.48e-01h  1
   6 -5.8558872e+00 1.59e+01 8.35e+05  -6.0 1.26e+03    -  3.83e-02 6.46e-01h  1
   7 -5.8469480e+00 1.38e+01 7.30e+05  -6.0 3.59e+01  -3.6 1.31e-02 1.32e-01h  1
   8 -5.8039052e+00 5.47e+00 2.94e+05  -6.0 6.42e+00  -4.1 1.45e-01 6.04e-01h  1
   9 -5.7989539e+00 4.62e+00 2.63e+05  -6.0 6.60e+00  -4.5 2.12e-01 1.56e-01h  1
iter    objective    inf_pr   inf_du lg(mu)  ||d||  lg(rg) alpha_du alpha_pr  ls
  10 -5.8260671e+00 4.35e+00 1.63e+05  -6.0 7.90e+02    -  3.91e-02 3.80e-01h  1
  11 -5.8273636e+00 4.37e+00 1.60e+05  -6.0 4.57e+03    -  1.19e-01 1.63e-02h  1
  12 -5.8434544e+00 5.31e+00 7.57e+04  -6.0 8.48e+02    -  1.23e-01 5.26e-01h  1
  13 -5.8433118e+00 4.60e+00 6.56e+04  -6.0 1.84e+02  -5.0 1.94e-03 1.34e-01h  1
  14 -5.8344260e+00 1.19e-02 1.72e+03  -6.0 1.93e+01  -5.5 6.71e-01 1.00e+00h  1
  15 -5.8410348e+00 3.61e-02 1.52e+03  -6.0 4.40e+01  -6.0 5.33e-01 1.00e+00h  1
  16 -5.8484999e+00 8.01e-02 2.11e+03  -6.0 6.27e+01  -6.4 1.37e-01 1.00e+00h  1
  17 -5.8631766e+00 3.63e-01 5.03e+02  -6.0 1.10e+02  -6.9 5.07e-01 1.00e+00h  1
  18 -5.8851179e+00 3.17e+00 1.91e+02  -6.0 4.75e+02  -7.4 3.60e-01 7.76e-01h  1
  19 -5.9231511e+00 6.88e+00 2.88e+03  -6.0 4.42e+03    -  2.82e-01 3.86e-01h  1
iter    objective    inf_pr   inf_du lg(mu)  ||d||  lg(rg) alpha_du alpha_pr  ls
  20 -5.9284620e+00 6.04e+00 1.68e+04  -6.0 1.68e+03    -  5.32e-01 1.56e-01h  1
  21 -5.9459368e+00 6.74e+00 3.72e+04  -6.0 2.39e+03    -  1.00e+00 3.45e-01h  1
  22 -5.9684904e+00 8.54e+00 5.00e+04  -6.0 2.16e+03    -  1.00e+00 4.18e-01h  1
  23 -5.9736781e+00 8.14e+00 9.41e+04  -6.0 2.13e+03    -  5.73e-01 6.56e-02h  1
  24 -5.9827699e+00 5.62e+00 5.90e+04  -6.0 6.24e+02    -  1.96e-01 3.06e-01h  1
  25 -6.0059985e+00 4.16e+01 5.39e+04  -6.0 4.53e+03  -7.9 9.16e-02 8.93e-02h  1
  26 -6.0184021e+00 3.42e+01 3.72e+04  -6.0 1.70e+03    -  1.27e-01 1.69e-01h  1
  27 -6.0278960e+00 2.65e+01 2.47e+05  -6.0 1.15e+03    -  1.00e+00 2.14e-01h  1
  28 -6.0646587e+00 5.95e+00 1.26e+05  -6.0 1.36e+03    -  2.64e-01 1.00e+00h  1
  29 -6.0674151e+00 4.58e+00 1.46e+05  -6.0 6.18e+02    -  3.93e-01 2.32e-01h  1
iter    objective    inf_pr   inf_du lg(mu)  ||d||  lg(rg) alpha_du alpha_pr  ls
  30r-6.0674151e+00 4.58e+00 1.00e+03   0.5 0.00e+00    -  0.00e+00 1.26e-07R  2
  31r-6.0743248e+00 4.57e+00 1.00e+03   0.5 1.67e+04    -  2.76e-06 8.10e-07f  1
  32 -6.0738573e+00 4.48e+00 2.95e+05  -6.0 1.01e+01    -  2.03e-01 2.07e-02h  1
  33 -6.0664356e+00 3.42e+00 3.65e+06  -6.0 9.33e+00    -  2.07e-02 2.36e-01h  1
  34 -6.0594273e+00 1.89e+00 2.02e+06  -6.0 8.01e+00    -  1.89e-01 4.47e-01h  1
  35 -6.0597641e+00 1.65e+00 1.76e+06  -6.0 5.51e+00    -  6.92e-02 1.28e-01h  1
  36 -6.0582339e+00 1.33e+00 1.41e+06  -6.0 3.61e+00    -  8.62e-01 1.97e-01h  1
  37 -6.0583706e+00 1.30e+00 1.38e+06  -6.0 5.58e+00    -  9.20e-01 2.25e-02h  1
  38 -6.0579812e+00 1.18e+00 1.26e+06  -6.0 4.11e+00  -4.7 8.90e-01 9.04e-02h  1
  39 -6.0528047e+00 1.02e-02 2.77e+01  -6.0 2.35e+00  -4.3 9.82e-01 1.00e+00h  1
iter    objective    inf_pr   inf_du lg(mu)  ||d||  lg(rg) alpha_du alpha_pr  ls
  40 -6.0621642e+00 3.93e-01 6.76e+00  -6.0 2.56e+02    -  9.34e-01 6.58e-01h  1
  41 -6.0660303e+00 5.53e-01 2.40e+01  -6.0 3.69e+02    -  8.69e-03 2.42e-01h  1
  42 -6.0619275e+00 7.47e-02 1.59e+03  -6.0 2.25e+02    -  9.57e-01 1.00e+00h  1
  43 -6.0634364e+00 2.65e-02 1.65e+02  -6.0 2.54e+01    -  1.00e+00 1.00e+00h  1
  44 -6.0628696e+00 3.72e-04 1.24e+03  -6.0 3.03e+00    -  8.96e-01 1.00e+00h  1
  45 -6.0628514e+00 3.26e-04 9.54e+02  -6.0 4.27e+00    -  1.00e+00 2.50e-01h  3
  46 -6.0628244e+00 2.81e-04 4.75e+02  -6.0 3.39e+00    -  1.00e+00 5.00e-01h  2
  47 -6.0627976e+00 1.48e-04 7.86e-01  -6.0 1.90e+00    -  1.00e+00 1.00e+00h  1
  48 -6.0627980e+00 3.58e-07 6.16e-05  -6.0 9.31e-02    -  1.00e+00 1.00e+00h  1
  49 -6.0627980e+00 2.85e-10 2.62e-10  -6.0 5.31e-04    -  1.00e+00 1.00e+00h  1
iter    objective    inf_pr   inf_du lg(mu)  ||d||  lg(rg) alpha_du alpha_pr  ls
  50 -6.0628708e+00 1.30e-01 4.86e+01  -7.5 1.10e+02    -  9.51e-01 7.83e-01h  1
  51 -6.0628729e+00 2.63e-02 1.07e+01  -7.5 2.43e+01    -  1.00e+00 8.56e-01h  1
  52 -6.0628722e+00 1.85e-04 3.92e-03  -7.5 3.21e+00    -  1.00e+00 1.00e+00h  1
  53 -6.0628722e+00 6.44e-10 8.42e-10  -7.5 6.26e-03    -  1.00e+00 1.00e+00h  1
  54 -6.0628737e+00 1.54e-04 7.08e-01  -9.0 3.49e+00    -  9.23e-01 8.46e-01h  1
  55 -6.0628740e+00 5.09e-06 9.74e-05  -9.0 5.37e-01    -  1.00e+00 1.00e+00f  1
  56 -6.0628740e+00 2.81e-10 3.63e-09  -9.0 1.78e-04    -  1.00e+00 1.00e+00h  1

Number of Iterations....: 56

                                   (scaled)                 (unscaled)
Objective...............:  -4.7366202830851272e+00   -6.0628739623489629e+00
Dual infeasibility......:   3.6309201191239498e-09    4.6475777524786557e-09
Constraint violation....:   2.8114185111893786e-10    2.8114185111893786e-10
Complementarity.........:   1.1402031178701283e-09    1.4594599908737643e-09
Overall NLP error.......:   3.6309201191239498e-09    4.6475777524786557e-09


Number of objective function evaluations             = 68
Number of objective gradient evaluations             = 57
Number of equality constraint evaluations            = 68
Number of inequality constraint evaluations          = 68
Number of equality constraint Jacobian evaluations   = 58
Number of inequality constraint Jacobian evaluations = 58
Number of Lagrangian Hessian evaluations             = 56
Total CPU secs in IPOPT (w/o function evaluations)   =    131.835
Total CPU secs in NLP function evaluations           =      2.325

EXIT: Optimal Solution Found.
